nohup: ignoring input
2024-07-30 09:26:45.395249: I external/local_xla/xla/tsl/cuda/cudart_stub.cc:32] Could not find cuda drivers on your machine, GPU will not be used.
2024-07-30 09:26:46.671908: I external/local_xla/xla/tsl/cuda/cudart_stub.cc:32] Could not find cuda drivers on your machine, GPU will not be used.
2024-07-30 09:26:47.301733: E external/local_xla/xla/stream_executor/cuda/cuda_fft.cc:485] Unable to register cuFFT factory: Attempting to register factory for plugin cuFFT when one has already been registered
2024-07-30 09:26:47.764436: E external/local_xla/xla/stream_executor/cuda/cuda_dnn.cc:8454] Unable to register cuDNN factory: Attempting to register factory for plugin cuDNN when one has already been registered
2024-07-30 09:26:47.915460: E external/local_xla/xla/stream_executor/cuda/cuda_blas.cc:1452] Unable to register cuBLAS factory: Attempting to register factory for plugin cuBLAS when one has already been registered
2024-07-30 09:26:49.077830: I tensorflow/core/platform/cpu_feature_guard.cc:210] This TensorFlow binary is optimized to use available CPU instructions in performance-critical operations.
To enable the following instructions: AVX2 FMA, in other operations, rebuild TensorFlow with the appropriate compiler flags.
2024-07-30 09:27:07.096335: W tensorflow/compiler/tf2tensorrt/utils/py_utils.cc:38] TF-TRT Warning: Could not find TensorRT
93
no warm start
Set parameter TokenServer to value "vm-gurobi-license.doc.ic.ac.uk"
Gurobi Optimizer version 11.0.2 build v11.0.2rc0 (linux64 - "Ubuntu 22.04.4 LTS")

CPU model: Intel(R) Core(TM) i7-10700 CPU @ 2.90GHz, instruction set [SSE2|AVX|AVX2]
Thread count: 8 physical cores, 16 logical processors, using up to 16 threads

Optimize a model with 2920 rows, 26820 columns and 55236 nonzeros
Model fingerprint: 0x8f1b26e5
Model has 100 quadratic constraints
Variable types: 26290 continuous, 530 integer (530 binary)
Coefficient statistics:
  Matrix range     [4e-03, 3e+04]
  QMatrix range    [1e+00, 1e+00]
  QLMatrix range   [1e+00, 1e+00]
  Objective range  [1e+00, 1e+00]
  Bounds range     [1e+00, 1e+00]
  RHS range        [1e+00, 3e+04]
Presolve removed 430 rows and 15210 columns
Presolve time: 0.21s
Presolved: 15390 rows, 14810 columns, 95636 nonzeros
Presolved model has 3200 bilinear constraint(s)

Solving non-convex MIQCP

Variable types: 14290 continuous, 520 integer (520 binary)
Found heuristic solution: objective -1.0000000

Root relaxation: objective -1.000000e+01, 4365 iterations, 0.05 seconds (0.07 work units)

    Nodes    |    Current Node    |     Objective Bounds      |     Work
 Expl Unexpl |  Obj  Depth IntInf | Incumbent    BestBd   Gap | It/Node Time

     0     0  -10.00000    0  165   -1.00000  -10.00000   900%     -    0s
H    0     0                      -2.0000000  -10.00000   400%     -    0s
     0     0  -10.00000    0  165   -2.00000  -10.00000   400%     -    0s
H    0     0                     -10.0000000  -10.00000  0.00%     -    1s
     0     0  -10.00000    0  165  -10.00000  -10.00000  0.00%     -    1s

Explored 1 nodes (9079 simplex iterations) in 1.10 seconds (1.23 work units)
Thread count was 16 (of 16 available processors)

Solution count 3: -10 -2 -1 
No other solutions better than -10

Optimal solution found (tolerance 1.00e-04)
Best objective -1.000000000000e+01, best bound -1.000000000000e+01, gap 0.0000%
mnist - Training average accuracy over 1 experiments with 10 training points using max_correct: 1.0
mnist - testing average accuracy over 1 experiments with 10 training points using max_correct: 0.1196
no warm start
Gurobi Optimizer version 11.0.2 build v11.0.2rc0 (linux64 - "Ubuntu 22.04.4 LTS")

CPU model: Intel(R) Core(TM) i7-10700 CPU @ 2.90GHz, instruction set [SSE2|AVX|AVX2]
Thread count: 8 physical cores, 16 logical processors, using up to 16 threads

Optimize a model with 2100 rows, 26810 columns and 52516 nonzeros
Model fingerprint: 0xd4516c89
Model has 200 quadratic constraints
Variable types: 26390 continuous, 420 integer (420 binary)
Coefficient statistics:
  Matrix range     [4e-03, 3e+04]
  QMatrix range    [1e+00, 1e+00]
  QLMatrix range   [1e+00, 2e+00]
  Objective range  [1e+00, 1e+00]
  Bounds range     [1e+00, 1e+00]
  RHS range        [8e+02, 3e+04]
  QRHS range       [1e+00, 1e+00]
Presolve removed 520 rows and 15200 columns
Presolve time: 0.05s
Presolved: 14580 rows, 14910 columns, 85936 nonzeros
Presolved model has 100 quadratic constraint(s)
Presolved model has 3200 bilinear constraint(s)

Solving non-convex MIQCP

Variable types: 14490 continuous, 420 integer (420 binary)
Found heuristic solution: objective 100.0000000

Root relaxation: objective 9.000000e+01, 4320 iterations, 0.05 seconds (0.06 work units)

    Nodes    |    Current Node    |     Objective Bounds      |     Work
 Expl Unexpl |  Obj  Depth IntInf | Incumbent    BestBd   Gap | It/Node Time

     0     0   90.00000    0  157  100.00000   90.00000  10.0%     -    0s
H    0     0                      99.0000003   90.00000  9.09%     -    0s
     0     0   90.00000    0   99   99.00000   90.00000  9.09%     -    1s
H    0     0                      94.5398050   90.00000  4.80%     -    1s
H    0     0                      91.8860303   90.00000  2.05%     -    1s
     0     0   90.00000    0  104   91.88603   90.00000  2.05%     -    1s
H    0     0                      91.8860303   90.00000  2.05%     -    1s
     0     0   90.00000    0  104   91.88603   90.00000  2.05%     -    1s
H    0     0                      90.5713955   90.00000  0.63%     -    1s
     0     0   90.00000    0  102   90.57140   90.00000  0.63%     -    1s
     0     0   90.00000    0  102   90.57140   90.00000  0.63%     -    1s
H    0     0                      90.5557705   90.00000  0.61%     -    1s
     0     0   90.00000    0  102   90.55577   90.00000  0.61%     -    1s
     0     0   90.00000    0  102   90.55577   90.00000  0.61%     -    1s
     0     0   90.00000    0  102   90.55577   90.00000  0.61%     -    1s
     0     0   90.00000    0  102   90.55577   90.00000  0.61%     -    1s
H    0     0                      90.0035327   90.00000  0.00%     -    2s

Cutting planes:
  Gomory: 1
  MIR: 2
  Flow cover: 6
  RLT: 4

Explored 1 nodes (14342 simplex iterations) in 2.06 seconds (2.64 work units)
Thread count was 16 (of 16 available processors)

Solution count 7: 90.0035 90.5558 90.5714 ... 100

Optimal solution found (tolerance 1.00e-04)
Best objective 9.000353274510e+01, best bound 9.000000000000e+01, gap 0.0039%
mnist - Training average accuracy over 1 experiments with 10 training points using hinge: 1.0
mnist - testing average accuracy over 1 experiments with 10 training points using hinge: 0.081
no warm start
Gurobi Optimizer version 11.0.2 build v11.0.2rc0 (linux64 - "Ubuntu 22.04.4 LTS")

CPU model: Intel(R) Core(TM) i7-10700 CPU @ 2.90GHz, instruction set [SSE2|AVX|AVX2]
Thread count: 8 physical cores, 16 logical processors, using up to 16 threads

Optimize a model with 2200 rows, 26810 columns and 52816 nonzeros
Model fingerprint: 0xdff0c13e
Model has 100 quadratic constraints
Variable types: 26290 continuous, 520 integer (520 binary)
Coefficient statistics:
  Matrix range     [4e-03, 3e+04]
  QMatrix range    [1e+00, 1e+00]
  QLMatrix range   [1e+00, 1e+00]
  Objective range  [1e+00, 1e+00]
  Bounds range     [1e+00, 1e+00]
  RHS range        [3e+02, 3e+04]
Presolve removed 610 rows and 15290 columns
Presolve time: 0.05s
Presolved: 14490 rows, 14720 columns, 85656 nonzeros
Presolved model has 3200 bilinear constraint(s)

Solving non-convex MIQCP

Variable types: 14290 continuous, 430 integer (430 binary)
Found heuristic solution: objective 100.0000000

Root relaxation: objective 9.000000e+01, 5048 iterations, 0.09 seconds (0.14 work units)

    Nodes    |    Current Node    |     Objective Bounds      |     Work
 Expl Unexpl |  Obj  Depth IntInf | Incumbent    BestBd   Gap | It/Node Time

     0     0   90.00000    0  444  100.00000   90.00000  10.0%     -    0s
     0     0   90.00000    0  444  100.00000   90.00000  10.0%     -    0s
H    0     0                      95.0000000   90.00000  5.26%     -    2s
H    0     0                      90.0000000   90.00000  0.00%     -    2s
     0     0   90.00000    0  444   90.00000   90.00000  0.00%     -    2s

Explored 1 nodes (10861 simplex iterations) in 2.18 seconds (3.59 work units)
Thread count was 16 (of 16 available processors)

Solution count 3: 90 95 100 

Optimal solution found (tolerance 1.00e-04)
Best objective 9.000000000000e+01, best bound 9.000000000000e+01, gap 0.0000%
mnist - Training average accuracy over 1 experiments with 10 training points using sat_margin: 1.0
mnist - testing average accuracy over 1 experiments with 10 training points using sat_margin: 0.281
no warm start
Gurobi Optimizer version 11.0.2 build v11.0.2rc0 (linux64 - "Ubuntu 22.04.4 LTS")

CPU model: Intel(R) Core(TM) i7-10700 CPU @ 2.90GHz, instruction set [SSE2|AVX|AVX2]
Thread count: 8 physical cores, 16 logical processors, using up to 16 threads

Optimize a model with 5840 rows, 28190 columns and 109288 nonzeros
Model fingerprint: 0x1fe6224b
Model has 200 quadratic constraints
Variable types: 27130 continuous, 1060 integer (1060 binary)
Coefficient statistics:
  Matrix range     [4e-03, 3e+04]
  QMatrix range    [1e+00, 1e+00]
  QLMatrix range   [1e+00, 1e+00]
  Objective range  [1e+00, 1e+00]
  Bounds range     [1e+00, 1e+00]
  RHS range        [1e+00, 3e+04]
Presolve removed 860 rows and 13140 columns
Presolve time: 0.14s
Presolved: 30780 rows, 21450 columns, 191784 nonzeros
Presolved model has 6400 bilinear constraint(s)

Solving non-convex MIQCP

Variable types: 20410 continuous, 1040 integer (1040 binary)
Found heuristic solution: objective -2.0000000
Deterministic concurrent LP optimizer: primal and dual simplex
Showing primal log only...

Concurrent spin time: 0.00s

Solved with dual simplex

Use crossover to convert LP symmetric solution to basic solution...

Root relaxation: objective -2.000000e+01, 6863 iterations, 0.09 seconds (0.14 work units)

    Nodes    |    Current Node    |     Objective Bounds      |     Work
 Expl Unexpl |  Obj  Depth IntInf | Incumbent    BestBd   Gap | It/Node Time

     0     0  -20.00000    0   20   -2.00000  -20.00000   900%     -    0s
     0     0  -20.00000    0  177   -2.00000  -20.00000   900%     -    1s
H    0     0                      -3.0000000  -20.00000   567%     -    2s
H    0     0                      -4.0000000  -20.00000   400%     -   22s
H    0     0                      -5.0000000  -20.00000   300%     -   22s
H    0     0                      -6.0000000  -20.00000   233%     -   22s
H    0     0                      -7.0000000  -20.00000   186%     -   22s
H    0     0                      -9.0000000  -20.00000   122%     -   22s
H    0     0                     -10.0000000  -20.00000   100%     -   22s
H    0     0                     -11.0000000  -20.00000  81.8%     -   22s
H    0     0                     -12.0000000  -20.00000  66.7%     -   22s
H    0     0                     -13.0000000  -20.00000  53.8%     -   22s
H    0     0                     -14.0000000  -20.00000  42.9%     -   22s
H    0     0                     -15.0000000  -20.00000  33.3%     -   22s
H    0     0                     -16.0000000  -20.00000  25.0%     -   22s
H    0     0                     -17.0000000  -20.00000  17.6%     -   22s
     0     0  -20.00000    0  162  -17.00000  -20.00000  17.6%     -   22s
H    0     0                     -18.0000000  -20.00000  11.1%     -   22s
     0     0  -20.00000    0  162  -18.00000  -20.00000  11.1%     -   22s
H    0     0                     -20.0000000  -20.00000  0.00%     -   25s
     0     0  -20.00000    0  162  -20.00000  -20.00000  0.00%     -   25s

Cutting planes:
  Cover: 20
  MIR: 14
  Flow cover: 4

Explored 1 nodes (43564 simplex iterations) in 25.64 seconds (25.38 work units)
Thread count was 16 (of 16 available processors)

Solution count 10: -20 -18 -17 ... -10
No other solutions better than -20

Optimal solution found (tolerance 1.00e-04)
Best objective -2.000000000000e+01, best bound -2.000000000000e+01, gap 0.0000%
mnist - Training average accuracy over 1 experiments with 20 training points using max_correct: 1.0
mnist - testing average accuracy over 1 experiments with 20 training points using max_correct: 0.1134
no warm start
Gurobi Optimizer version 11.0.2 build v11.0.2rc0 (linux64 - "Ubuntu 22.04.4 LTS")

CPU model: Intel(R) Core(TM) i7-10700 CPU @ 2.90GHz, instruction set [SSE2|AVX|AVX2]
Thread count: 8 physical cores, 16 logical processors, using up to 16 threads

Optimize a model with 4200 rows, 28170 columns and 103848 nonzeros
Model fingerprint: 0x3020174c
Model has 400 quadratic constraints
Variable types: 27330 continuous, 840 integer (840 binary)
Coefficient statistics:
  Matrix range     [4e-03, 3e+04]
  QMatrix range    [1e+00, 1e+00]
  QLMatrix range   [1e+00, 2e+00]
  Objective range  [1e+00, 1e+00]
  Bounds range     [1e+00, 1e+00]
  RHS range        [8e+02, 3e+04]
  QRHS range       [1e+00, 1e+00]
Presolve removed 1040 rows and 13120 columns
Presolve time: 0.09s
Presolved: 29160 rows, 21650 columns, 172384 nonzeros
Presolved model has 200 quadratic constraint(s)
Presolved model has 6400 bilinear constraint(s)

Solving non-convex MIQCP

Variable types: 20810 continuous, 840 integer (840 binary)
Found heuristic solution: objective 200.0000000
Deterministic concurrent LP optimizer: primal and dual simplex
Showing primal log only...

Concurrent spin time: 0.00s

Solved with primal simplex

Use crossover to convert LP symmetric solution to basic solution...

Root relaxation: objective 1.800000e+02, 1164 iterations, 0.09 seconds (0.13 work units)

    Nodes    |    Current Node    |     Objective Bounds      |     Work
 Expl Unexpl |  Obj  Depth IntInf | Incumbent    BestBd   Gap | It/Node Time

     0     0  180.00000    0   20  200.00000  180.00000  10.0%     -    0s
H    0     0                     199.0000002  180.00000  9.55%     -   21s
H    0     0                     195.0000000  180.00000  7.69%     -   21s
H    0     0                     194.0000000  180.00000  7.22%     -   21s
H    0     0                     193.0000001  180.00000  6.74%     -   21s
H    0     0                     193.0000001  180.00000  6.74%     -   21s
H    0     0                     193.0000000  180.00000  6.74%     -   21s
H    0     0                     192.0000007  180.00000  6.25%     -   21s
H    0     0                     192.0000007  180.00000  6.25%     -   21s
H    0     0                     191.9622112  180.00000  6.23%     -   21s
H    0     0                     191.5036693  180.00000  6.01%     -   21s
H    0     0                     191.3752672  180.00000  5.94%     -   21s
H    0     0                     191.2192522  180.00000  5.87%     -   21s
H    0     0                     191.0732480  180.00000  5.80%     -   21s
H    0     0                     190.1110368  180.00000  5.32%     -   21s
     0     0  180.00000    0 4457  190.11104  180.00000  5.32%     -   21s
H    0     0                     186.0000000  180.00000  3.23%     -   22s
H    0     0                     180.0000000  180.00000  0.00%     -   22s

Cutting planes:
  MIR: 22
  Flow cover: 25
  RLT: 44

Explored 1 nodes (60211 simplex iterations) in 22.22 seconds (26.57 work units)
Thread count was 16 (of 16 available processors)

Solution count 10: 180 186 190.111 ... 193

Optimal solution found (tolerance 1.00e-04)
Best objective 1.800000000000e+02, best bound 1.800000000000e+02, gap 0.0000%
mnist - Training average accuracy over 1 experiments with 20 training points using hinge: 1.0
mnist - testing average accuracy over 1 experiments with 20 training points using hinge: 0.2165
no warm start
Gurobi Optimizer version 11.0.2 build v11.0.2rc0 (linux64 - "Ubuntu 22.04.4 LTS")

CPU model: Intel(R) Core(TM) i7-10700 CPU @ 2.90GHz, instruction set [SSE2|AVX|AVX2]
Thread count: 8 physical cores, 16 logical processors, using up to 16 threads

Optimize a model with 4400 rows, 28170 columns and 104448 nonzeros
Model fingerprint: 0x7b9d8eba
Model has 200 quadratic constraints
Variable types: 27130 continuous, 1040 integer (1040 binary)
Coefficient statistics:
  Matrix range     [4e-03, 3e+04]
  QMatrix range    [1e+00, 1e+00]
  QLMatrix range   [1e+00, 1e+00]
  Objective range  [1e+00, 1e+00]
  Bounds range     [1e+00, 1e+00]
  RHS range        [3e+02, 3e+04]
Presolve removed 1220 rows and 13300 columns
Presolve time: 0.09s
Presolved: 28980 rows, 21270 columns, 171824 nonzeros
Presolved model has 6400 bilinear constraint(s)

Solving non-convex MIQCP

Variable types: 20410 continuous, 860 integer (860 binary)
Found heuristic solution: objective 200.0000000
Deterministic concurrent LP optimizer: primal and dual simplex
Showing primal log only...

Concurrent spin time: 0.00s

Solved with dual simplex

Use crossover to convert LP symmetric solution to basic solution...

Root relaxation: objective 1.800000e+02, 8335 iterations, 0.13 seconds (0.18 work units)

    Nodes    |    Current Node    |     Objective Bounds      |     Work
 Expl Unexpl |  Obj  Depth IntInf | Incumbent    BestBd   Gap | It/Node Time

     0     0  180.00000    0 6111  200.00000  180.00000  10.0%     -    4s
     0     0  180.00000    0 6111  200.00000  180.00000  10.0%     -    5s
     0     2  180.00000    0 6111  200.00000  180.00000  10.0%     -   10s
    15    24  180.00000    4 6101  200.00000  180.00000  10.0%   330   40s
   115   177  180.00000   10 6111  200.00000  180.00000  10.0%   625   69s
   176   608  180.00000   15 6081  200.00000  180.00000  10.0%   946   93s
H  414   608                     199.0000000  180.00000  9.55%   523   93s
   607   655  180.00000   49 5930  199.00000  180.00000  9.55%   435  185s
   654   699  180.00000   51 5902  199.00000  180.00000  9.55%   732  275s
   698   756  180.00000   52 5901  199.00000  180.00000  9.55%   795  353s
   755   823  180.00000   53 5901  199.00000  180.00000  9.55%  1000  436s
   822  1652  180.00000   56 5875  199.00000  180.00000  9.55%  1180  510s
  1651  3499  180.00000   67 5842  199.00000  180.00000  9.55%   722  554s
  3498  4644  180.00000   71 5745  199.00000  180.00000  9.55%   408  588s
H 4194  4644                     198.0000000  180.00000  9.09%   359  588s
  4643  5179  180.00000   72 5743  198.00000  180.00000  9.09%   347  614s
H 5178  5720                     197.0000000  180.00000  8.63%   346  638s
  5719  6114  180.00000  244 4403  197.00000  180.00000  8.63%   350  661s
H 6073   832                     180.0000000  180.00000  0.00%   359  662s

Explored 6113 nodes (2251616 simplex iterations) in 662.02 seconds (523.93 work units)
Thread count was 16 (of 16 available processors)

Solution count 5: 180 197 198 ... 200

Optimal solution found (tolerance 1.00e-04)
Best objective 1.800000000000e+02, best bound 1.800000000000e+02, gap 0.0000%
mnist - Training average accuracy over 1 experiments with 20 training points using sat_margin: 1.0
mnist - testing average accuracy over 1 experiments with 20 training points using sat_margin: 0.4759
no warm start
Gurobi Optimizer version 11.0.2 build v11.0.2rc0 (linux64 - "Ubuntu 22.04.4 LTS")

CPU model: Intel(R) Core(TM) i7-10700 CPU @ 2.90GHz, instruction set [SSE2|AVX|AVX2]
Thread count: 8 physical cores, 16 logical processors, using up to 16 threads

Optimize a model with 8760 rows, 29560 columns and 166316 nonzeros
Model fingerprint: 0xdec3e221
Model has 300 quadratic constraints
Variable types: 27970 continuous, 1590 integer (1590 binary)
Coefficient statistics:
  Matrix range     [4e-03, 3e+04]
  QMatrix range    [1e+00, 1e+00]
  QLMatrix range   [1e+00, 1e+00]
  Objective range  [1e+00, 1e+00]
  Bounds range     [1e+00, 1e+00]
  RHS range        [1e+00, 3e+04]
Presolve removed 1290 rows and 12062 columns
Presolve time: 0.22s
Presolved: 46170 rows, 27098 columns, 291356 nonzeros
Presolved model has 9600 bilinear constraint(s)

Solving non-convex MIQCP

Variable types: 25538 continuous, 1560 integer (1560 binary)
Found heuristic solution: objective -3.0000000
Deterministic concurrent LP optimizer: primal and dual simplex
Showing primal log only...

Concurrent spin time: 0.01s

Solved with dual simplex

Use crossover to convert LP symmetric solution to basic solution...

Root relaxation: objective -3.000000e+01, 13915 iterations, 0.23 seconds (0.36 work units)

    Nodes    |    Current Node    |     Objective Bounds      |     Work
 Expl Unexpl |  Obj  Depth IntInf | Incumbent    BestBd   Gap | It/Node Time

     0     0  -30.00000    0  431   -3.00000  -30.00000   900%     -    8s
H    0     0                      -4.0000000  -30.00000   650%     -    9s
H    0     0                     -30.0000000  -30.00000  0.00%     -   14s
     0     0  -30.00000    0  860  -30.00000  -30.00000  0.00%     -   14s

Cutting planes:
  Cover: 30
  MIR: 374
  Flow cover: 4
  RLT: 30

Explored 1 nodes (47501 simplex iterations) in 14.70 seconds (20.88 work units)
Thread count was 16 (of 16 available processors)

Solution count 3: -30 -4 -3 
No other solutions better than -30

Optimal solution found (tolerance 1.00e-04)
Best objective -3.000000000000e+01, best bound -3.000000000000e+01, gap 0.0000%
mnist - Training average accuracy over 1 experiments with 30 training points using max_correct: 1.0
mnist - testing average accuracy over 1 experiments with 30 training points using max_correct: 0.1025
no warm start
Gurobi Optimizer version 11.0.2 build v11.0.2rc0 (linux64 - "Ubuntu 22.04.4 LTS")

CPU model: Intel(R) Core(TM) i7-10700 CPU @ 2.90GHz, instruction set [SSE2|AVX|AVX2]
Thread count: 8 physical cores, 16 logical processors, using up to 16 threads

Optimize a model with 6300 rows, 29530 columns and 158156 nonzeros
Model fingerprint: 0xbfd8d5b4
Model has 600 quadratic constraints
Variable types: 28270 continuous, 1260 integer (1260 binary)
Coefficient statistics:
  Matrix range     [4e-03, 3e+04]
  QMatrix range    [1e+00, 1e+00]
  QLMatrix range   [1e+00, 2e+00]
  Objective range  [1e+00, 1e+00]
  Bounds range     [1e+00, 1e+00]
  RHS range        [8e+02, 3e+04]
  QRHS range       [1e+00, 1e+00]
Presolve removed 1560 rows and 12032 columns
Presolve time: 0.14s
Presolved: 43740 rows, 27398 columns, 262256 nonzeros
Presolved model has 300 quadratic constraint(s)
Presolved model has 9600 bilinear constraint(s)

Solving non-convex MIQCP

Variable types: 26138 continuous, 1260 integer (1260 binary)
Found heuristic solution: objective 300.0000000
Deterministic concurrent LP optimizer: primal and dual simplex
Showing primal log only...

Concurrent spin time: 0.03s

Solved with dual simplex

Use crossover to convert LP symmetric solution to basic solution...

Root relaxation: objective 2.700000e+02, 11547 iterations, 0.25 seconds (0.37 work units)

    Nodes    |    Current Node    |     Objective Bounds      |     Work
 Expl Unexpl |  Obj  Depth IntInf | Incumbent    BestBd   Gap | It/Node Time

     0     0  270.00000    0  574  300.00000  270.00000  10.0%     -    9s
H    0     0                     299.0000001  270.00000  9.70%     -   60s
H    0     0                     299.0000000  270.00000  9.70%     -   60s
H    0     0                     298.0000000  270.00000  9.40%     -   60s
H    0     0                     298.0000000  270.00000  9.40%     -   60s
H    0     0                     297.0175578  270.00000  9.10%     -   60s
H    0     0                     297.0000009  270.00000  9.09%     -   60s
H    0     0                     297.0000005  270.00000  9.09%     -   60s
H    0     0                     297.0000000  270.00000  9.09%     -   60s
H    0     0                     287.4194357  270.00000  6.06%     -   60s
H    0     0                     281.5822616  270.00000  4.11%     -   60s
H    0     0                     281.5822615  270.00000  4.11%     -   60s
H    0     0                     280.3300651  270.00000  3.68%     -   60s
H    0     0                     280.3284819  270.00000  3.68%     -   60s
H    0     0                     271.9107828  270.00000  0.70%     -   60s
     0     0  270.00000    0 7770  271.91078  270.00000  0.70%     -   60s
     0     0  270.00000    0 7765  271.91078  270.00000  0.70%     -   61s
H    0     0                     271.5487409  270.00000  0.57%     -   80s
     0     0  270.00000    0 7698  271.54874  270.00000  0.57%     -   93s
H    0     0                     271.5053887  270.00000  0.55%     -   94s
H    0     0                     271.5004770  270.00000  0.55%     -   94s
H    0     0                     271.5000164  270.00000  0.55%     -   94s
H    0     0                     271.5000163  270.00000  0.55%     -   94s
H    0     0                     270.8910632  270.00000  0.33%     -   94s
H    0     0                     270.8910630  270.00000  0.33%     -   94s
     0     0  270.00000    0 7595  270.89106  270.00000  0.33%     -   94s
H    0     0                     270.0000068  270.00000  0.00%     -  105s
     0     0  270.00000    0 7596  270.00001  270.00000  0.00%     -  105s

Cutting planes:
  Gomory: 11
  MIR: 176
  Flow cover: 136
  RLT: 299

Explored 1 nodes (122603 simplex iterations) in 105.67 seconds (116.09 work units)
Thread count was 16 (of 16 available processors)

Solution count 10: 270 270.891 271.5 ... 281.582

Optimal solution found (tolerance 1.00e-04)
Best objective 2.700000067767e+02, best bound 2.700000000000e+02, gap 0.0000%
mnist - Training average accuracy over 1 experiments with 30 training points using hinge: 1.0
mnist - testing average accuracy over 1 experiments with 30 training points using hinge: 0.2056
no warm start
Gurobi Optimizer version 11.0.2 build v11.0.2rc0 (linux64 - "Ubuntu 22.04.4 LTS")

CPU model: Intel(R) Core(TM) i7-10700 CPU @ 2.90GHz, instruction set [SSE2|AVX|AVX2]
Thread count: 8 physical cores, 16 logical processors, using up to 16 threads

Optimize a model with 6600 rows, 29530 columns and 159056 nonzeros
Model fingerprint: 0x70835f92
Model has 300 quadratic constraints
Variable types: 27970 continuous, 1560 integer (1560 binary)
Coefficient statistics:
  Matrix range     [4e-03, 3e+04]
  QMatrix range    [1e+00, 1e+00]
  QLMatrix range   [1e+00, 1e+00]
  Objective range  [1e+00, 1e+00]
  Bounds range     [1e+00, 1e+00]
  RHS range        [3e+02, 3e+04]
Presolve removed 1830 rows and 12302 columns
Presolve time: 0.14s
Presolved: 43470 rows, 26828 columns, 261416 nonzeros
Presolved model has 9600 bilinear constraint(s)

Solving non-convex MIQCP

Variable types: 25538 continuous, 1290 integer (1290 binary)
Found heuristic solution: objective 300.0000000
Deterministic concurrent LP optimizer: primal and dual simplex
Showing primal log only...

Concurrent spin time: 0.04s

Solved with dual simplex

Use crossover to convert LP symmetric solution to basic solution...

Root relaxation: objective 2.700000e+02, 14645 iterations, 0.39 seconds (0.58 work units)

    Nodes    |    Current Node    |     Objective Bounds      |     Work
 Expl Unexpl |  Obj  Depth IntInf | Incumbent    BestBd   Gap | It/Node Time

     0     0  270.00000    0 5815  300.00000  270.00000  10.0%     -   10s
     0     0  270.00000    0 5853  300.00000  270.00000  10.0%     -   43s
     0     0  270.00000    0 5838  300.00000  270.00000  10.0%     -   43s
     0     0  270.00000    0 5672  300.00000  270.00000  10.0%     -   64s
     0     0  270.00000    0 5629  300.00000  270.00000  10.0%     -   67s
     0     0  270.00000    0 5655  300.00000  270.00000  10.0%     -   84s
     0     0  270.00000    0 5603  300.00000  270.00000  10.0%     -   87s
     0     0  270.00000    0 5536  300.00000  270.00000  10.0%     -  103s
     0     0  270.00000    0 5486  300.00000  270.00000  10.0%     -  105s
     0     0  270.00000    0 5472  300.00000  270.00000  10.0%     -  120s
     0     0  270.00000    0 5456  300.00000  270.00000  10.0%     -  120s
     0     0  270.00000    0 5496  300.00000  270.00000  10.0%     -  135s
     0     0  270.00000    0 5478  300.00000  270.00000  10.0%     -  136s
     0     0  270.00000    0 5300  300.00000  270.00000  10.0%     -  151s
     0     0  270.00000    0 5296  300.00000  270.00000  10.0%     -  152s
     0     0  270.00000    0 5198  300.00000  270.00000  10.0%     -  165s
     0     0  270.00000    0 5193  300.00000  270.00000  10.0%     -  166s
     0     0  270.00000    0 5231  300.00000  270.00000  10.0%     -  179s
     0     0  270.00000    0 5225  300.00000  270.00000  10.0%     -  180s
     0     0  270.00000    0 5143  300.00000  270.00000  10.0%     -  194s
     0     0  270.00000    0 5137  300.00000  270.00000  10.0%     -  194s
     0     0  270.00000    0 5109  300.00000  270.00000  10.0%     -  207s
     0     0  270.00000    0 5105  300.00000  270.00000  10.0%     -  220s
     0     0  270.00000    0 5105  300.00000  270.00000  10.0%     -  228s
H    0     0                     295.0000000  270.00000  8.47%     -  252s
     0     2  270.00000    0 5105  295.00000  270.00000  8.47%     -  267s
     3     8  270.00000    2 5103  295.00000  270.00000  8.47%  2851  270s
    15    24  270.00000    4 4954  295.00000  270.00000  8.47%  1384  291s
    31    40  270.00000    6 4998  295.00000  270.00000  8.47%  1793  296s
H   32    40                     294.0000000  270.00000  8.16%  1737  296s
    39    48  270.00000    7 4998  294.00000  270.00000  8.16%  1498  301s
    55    82  270.00000    9 5023  294.00000  270.00000  8.16%  1233  309s
    81   156  270.00000   12 5024  294.00000  270.00000  8.16%   907  326s
   155   307  270.00000   21 5040  294.00000  270.00000  8.16%   541  363s
H  172   307                     293.0000000  270.00000  7.85%   495  363s
   306   524  270.00000   40 5079  293.00000  270.00000  7.85%   323  438s
H  358   524                     292.0000000  270.00000  7.53%   327  438s
   523   662  270.00000   69 5039  292.00000  270.00000  7.53%   342  642s
   661   748  270.00000   71 4060  292.00000  270.00000  7.53%   611  881s
H  747  2394                     291.0000000  270.00000  7.22%   583 1259s
  2393  3277  270.00000  262 4140  291.00000  270.00000  7.22%   387 1457s
H 2765  3277                     290.0000000  270.00000  6.90%   375 1457s
  3276  4330  270.00000  263 4136  290.00000  270.00000  6.90%   362 1597s
H 3302  4330                     289.0000000  270.00000  6.57%   362 1597s
  4329  5011  270.00000  413 3972  289.00000  270.00000  6.57%   370 1731s
  5010  5535  270.00000  517 3912  289.00000  270.00000  6.57%   398 1872s
  5534  5940  270.00000  589 3884  289.00000  270.00000  6.57%   435 2021s
  5939  6309  270.00000  651 3811  289.00000  270.00000  6.57%   480 2179s
H 6211  6309                     288.0000000  270.00000  6.25%   515 2179s
  6308  6654  270.00000  707 3828  288.00000  270.00000  6.25%   525 2347s
  6653  6922  270.00000  743 3766  288.00000  270.00000  6.25%   572 2526s
H 6781  6922                     287.0000000  270.00000  5.92%   599 2526s
  6921  7184  270.00000  770 3746  287.00000  270.00000  5.92%   625 2713s
  7183  7430  270.00000  807 3767  287.00000  270.00000  5.92%   678 2909s
H 7429  7430                     284.0000000  270.00000  4.93%   732 2966s
H 7431  7060                     276.0000000  270.00000  2.17%   732 3003s
H 7432  6707                     274.0000000  270.00000  1.46%   732 3015s
H 7434  6373                     270.0000000  270.00000  0.00%   731 3036s

Cutting planes:
  Learned: 3

Explored 7434 nodes (5629995 simplex iterations) in 3036.01 seconds (2320.31 work units)
Thread count was 16 (of 16 available processors)

Solution count 10: 270 274 276 ... 292

Optimal solution found (tolerance 1.00e-04)
Best objective 2.700000000000e+02, best bound 2.700000000000e+02, gap 0.0000%
mnist - Training average accuracy over 1 experiments with 30 training points using sat_margin: 1.0
mnist - testing average accuracy over 1 experiments with 30 training points using sat_margin: 0.602
